28
39
127
90
0
32
0
35
25
34
0
24
61
229
23
21
19
44
22
53
39
0
56
322
12
30
95
91
0
38
21
43
36
20
27
275
77
0
0
15
30
21
0
137
27
0
21
35
0
36
24
26
19
40
43
151
16
25
49
325
0
75
70
47
0
68
42
24
13
26
18
28
29
17
0
131
60
63
61
27
0
29
19
66
17
44
36
172
33
21
20
0
34
65
24
54
0
17
29
16
